p edge 24 54
e 1 10
e 1 21
e 1 24
e 2 3
e 2 9
e 2 12
e 2 15
e 2 20
e 2 24
e 3 14
e 3 15
e 3 19
e 3 22
e 4 5
e 4 12
e 4 13
e 4 14
e 4 15
e 5 7
e 5 23
e 6 12
e 6 14
e 6 16
e 6 18
e 6 19
e 6 20
e 6 22
e 7 11
e 7 15
e 7 19
e 7 22
e 7 23
e 8 19
e 8 20
e 9 10
e 9 16
e 9 20
e 9 21
e 10 15
e 10 22
e 10 24
e 11 14
e 11 17
e 12 13
e 12 15
e 12 18
e 12 21
e 13 14
e 13 15
e 13 17
e 13 18
e 16 18
e 16 23
e 17 24
